c
c start with comments
c
p cnf 25 35
9 19 -4 0
-11 -14 3 19 0
4 -10 21 0
12 -2 0
14 -15 -8 -5 -18 -10 0
17 9 9 -22 0
-3 21 -3 14 23 0
20 -17 1 -15 19 4 0
-11 -13 -5 -16 17 0
-24 3 21 0
22 24 -18 0
3 8 -14 0
13 -3 0
-18 1 -16 0
14 13 20 11 0
17 6 0
-6 18 -11 -7 0
-22 -16 -2 0
-23 4 -11 -13 -13 -24 0
-23 -17 -6 5 0
13 -4 -4 23 -2 0
-3 -16 0
23 -25 -4 21 2 -15 0
15 -20 18 0
20 -12 17 -11 3 0
-4 -23 -22 0
1 14 0
15 21 22 1 -17 0
-7 -17 23 0
9 -15 2 -24 9 0
-20 7 -13 0
4 6 -3 -6 0
-23 -10 -23 -19 4 0
-20 -16 -21 9 -15 0
3 8 0